NAME : X_26_seed_123_id_8
TYPE : CVRP
DIMENSION : 219
EDGE_WEIGHT_TYPE : EUC_2D
CAPACITY : 3
NODE_COORD_SECTION
1	0	0
2	616	522
3	620	472
4	278	374
5	109	373
6	673	526
7	56	755
8	938	751
9	642	845
10	403	504
11	623	952
12	508	304
13	665	683
14	164	122
15	323	999
16	954	877
17	947	562
18	621	821
19	354	884
20	824	790
21	46	472
22	675	460
23	248	562
24	731	176
25	201	376
26	946	460
27	619	834
28	402	309
29	593	234
30	625	677
31	237	826
32	504	659
33	140	1
34	508	139
35	182	582
36	561	506
37	641	212
38	227	549
39	63	757
40	874	264
41	495	474
42	970	600
43	794	986
44	132	464
45	919	129
46	806	474
47	338	878
48	724	818
49	518	269
50	884	972
51	645	58
52	285	229
53	78	215
54	202	474
55	607	224
56	543	755
57	267	125
58	678	660
59	504	152
60	887	214
61	221	913
62	182	985
63	211	296
64	610	430
65	652	297
66	642	118
67	116	416
68	361	745
69	555	1
70	277	488
71	579	167
72	358	348
73	477	622
74	781	961
75	271	587
76	56	744
77	38	490
78	805	109
79	123	30
80	108	744
81	863	757
82	32	114
83	894	589
84	139	620
85	81	34
86	136	665
87	779	330
88	196	391
89	224	488
90	972	456
91	297	419
92	759	840
93	570	621
94	153	943
95	170	374
96	190	851
97	731	504
98	727	384
99	821	728
100	697	749
101	650	580
102	333	337
103	852	437
104	444	484
105	751	109
106	304	182
107	318	452
108	973	765
109	34	200
110	394	643
111	839	562
112	100	191
113	731	373
114	77	172
115	321	924
116	723	869
117	876	645
118	523	911
119	685	513
120	295	4
121	430	915
122	702	523
123	751	507
124	399	797
125	19	340
126	69	392
127	898	915
128	751	573
129	992	548
130	505	507
131	638	696
132	912	751
133	377	744
134	240	14
135	18	716
136	689	534
137	87	279
138	26	534
139	331	394
140	327	23
141	765	872
142	777	983
143	74	288
144	890	604
145	241	140
146	539	708
147	784	675
148	147	963
149	505	411
150	117	949
151	701	783
152	820	486
153	221	29
154	211	799
155	173	665
156	386	865
157	265	676
158	506	336
159	171	93
160	27	854
161	652	216
162	874	657
163	859	482
164	764	577
165	68	249
166	687	785
167	171	548
168	634	314
169	619	630
170	758	48
171	313	353
172	10	930
173	728	796
174	119	749
175	959	704
176	828	612
177	715	435
178	492	869
179	68	110
180	87	20
181	704	407
182	595	575
183	440	335
184	459	89
185	261	633
186	18	323
187	644	362
188	409	103
189	94	273
190	776	929
191	926	934
192	16	255
193	688	127
194	174	176
195	375	163
196	356	372
197	136	419
198	490	70
199	449	833
200	118	468
201	488	587
202	139	297
203	899	931
204	249	950
205	123	422
206	516	566
207	921	55
208	223	952
209	944	141
210	140	791
211	81	895
212	140	238
213	501	430
214	183	927
215	39	535
216	112	145
217	781	287
218	601	580
219	193	351
DEMAND_SECTION
1	0
2	1
3	1
4	1
5	1
6	1
7	1
8	1
9	1
10	1
11	1
12	1
13	1
14	1
15	1
16	1
17	1
18	1
19	1
20	1
21	1
22	1
23	1
24	1
25	1
26	1
27	1
28	1
29	1
30	1
31	1
32	1
33	1
34	1
35	1
36	1
37	1
38	1
39	1
40	1
41	1
42	1
43	1
44	1
45	1
46	1
47	1
48	1
49	1
50	1
51	1
52	1
53	1
54	1
55	1
56	1
57	1
58	1
59	1
60	1
61	1
62	1
63	1
64	1
65	1
66	1
67	1
68	1
69	1
70	1
71	1
72	1
73	1
74	1
75	1
76	1
77	1
78	1
79	1
80	1
81	1
82	1
83	1
84	1
85	1
86	1
87	1
88	1
89	1
90	1
91	1
92	1
93	1
94	1
95	1
96	1
97	1
98	1
99	1
100	1
101	1
102	1
103	1
104	1
105	1
106	1
107	1
108	1
109	1
110	1
111	1
112	1
113	1
114	1
115	1
116	1
117	1
118	1
119	1
120	1
121	1
122	1
123	1
124	1
125	1
126	1
127	1
128	1
129	1
130	1
131	1
132	1
133	1
134	1
135	1
136	1
137	1
138	1
139	1
140	1
141	1
142	1
143	1
144	1
145	1
146	1
147	1
148	1
149	1
150	1
151	1
152	1
153	1
154	1
155	1
156	1
157	1
158	1
159	1
160	1
161	1
162	1
163	1
164	1
165	1
166	1
167	1
168	1
169	1
170	1
171	1
172	1
173	1
174	1
175	1
176	1
177	1
178	1
179	1
180	1
181	1
182	1
183	1
184	1
185	1
186	1
187	1
188	1
189	1
190	1
191	1
192	1
193	1
194	1
195	1
196	1
197	1
198	1
199	1
200	1
201	1
202	1
203	1
204	1
205	1
206	1
207	1
208	1
209	1
210	1
211	1
212	1
213	1
214	1
215	1
216	1
217	1
218	1
219	1
DEPOT_SECTION
1
-1
EOF
